p edge 30 114 5
v 6 5 14 15 18 20 23
v 3 8 26 29
v 7 6 7 10 12 13 27 30
v 7 1 2 3 4 9 16 28
v 7 11 17 19 21 22 24 25
e 1 10
e 1 14
e 1 15
e 1 18
e 1 19
e 2 3
e 2 5
e 2 7
e 2 9
e 2 10
e 2 12
e 2 13
e 2 14
e 2 16
e 2 25
e 2 26
e 3 5
e 3 12
e 3 18
e 3 20
e 3 23
e 3 29
e 3 30
e 4 8
e 4 15
e 4 18
e 4 19
e 4 24
e 5 6
e 5 8
e 5 10
e 5 11
e 5 12
e 5 15
e 5 16
e 5 17
e 5 21
e 5 25
e 6 7
e 6 11
e 6 16
e 6 24
e 6 25
e 6 27
e 6 30
e 7 16
e 7 21
e 7 22
e 7 28
e 7 30
e 8 9
e 8 14
e 8 19
e 8 21
e 8 27
e 8 30
e 9 10
e 9 11
e 9 12
e 9 14
e 9 16
e 9 17
e 9 18
e 9 26
e 9 27
e 10 14
e 10 21
e 10 22
e 10 24
e 10 27
e 11 12
e 11 14
e 11 18
e 11 20
e 11 26
e 12 15
e 12 20
e 12 21
e 12 25
e 12 26
e 12 27
e 12 29
e 13 15
e 13 18
e 13 26
e 14 17
e 14 19
e 14 21
e 15 26
e 16 18
e 16 21
e 16 22
e 17 23
e 17 29
e 18 21
e 18 22
e 18 25
e 18 28
e 18 29
e 19 20
e 19 21
e 19 25
e 19 28
e 19 29
e 20 24
e 20 28
e 21 24
e 22 24
e 23 24
e 23 27
e 23 29
e 24 25
e 25 26
e 26 30
